SKUs = {
  "BRAKE_PAD_1_005",
  "BRAKE_PAD_1_049",
  "BRAKE_PAD_1_079",
  "BRAKE_PAD_1_083",
  "BRAKE_PAD_1_097",
  "BRAKE_PAD_1_108",
  "BRAKE_PAD_1_115",
  "BRAKE_PAD_1_124",
  "BRAKE_PAD_1_125",
  "BRAKE_PAD_1_148",
  "BRAKE_PAD_1_150",
  "BRAKE_PAD_1_176",
  "BRAKE_PAD_1_177",
  "BRAKE_PAD_1_179",
  "BRAKE_PAD_1_181",
  "BRAKE_PAD_1_183",
  "BRAKE_PAD_2_003",
  "BRAKE_PAD_2_007",
  "BRAKE_PAD_2_031",
  "BRAKE_PAD_2_042",
  "BRAKE_PAD_2_045",
  "BRAKE_PAD_2_052",
  "BRAKE_PAD_2_078",
  "BRAKE_PAD_2_096",
  "BRAKE_PAD_2_116",
  "BRAKE_PAD_2_124",
  "BRAKE_PAD_2_126",
  "BRAKE_PAD_2_127",
  "BRAKE_PAD_2_130",
  "BRAKE_PAD_2_146",
  "BRAKE_PAD_2_159",
  "BRAKE_PAD_2_166",
  "BRAKE_PAD_2_172",
  "BRAKE_PAD_2_173",
  "BRAKE_PAD_2_181",
  "BRAKE_PAD_2_182",
  "BRAKE_PAD_2_183",
  "BRAKE_PAD_2_184",
  "BRAKE_PAD_2_188",
  "BRAKE_PAD_2_207",
  "BRAKE_PAD_2_210",
  "BRAKE_PAD_2_212",
  "BRAKE_PAD_2_223",
  "BRAKE_PAD_2_254",
  "BRAKE_PAD_2_259",
  "BRAKE_PAD_2_285",
  "BRAKE_PAD_2_295",
  "BRAKE_PAD_2_303",
  "BRAKE_PAD_2_311",
  "BRAKE_PAD_2_317",
  "BRAKE_PAD_2_324",
  "BRAKE_PAD_2_332",
  "BRAKE_PAD_2_346",
  "BRAKE_PAD_2_348",
  "BRAKE_PAD_2_352",
  "BRAKE_PAD_2_355",
  "BRAKE_PAD_2_361",
  "BRAKE_PAD_2_368",
  "BRAKE_PAD_2_369",
  "BRAKE_PAD_2_382",
  "BRAKE_PAD_2_387",
  "BRAKE_PAD_2_393",
  "BRAKE_PAD_3_008",
  "BRAKE_PAD_3_009",
  "BRAKE_PAD_3_023",
  "BRAKE_PAD_3_030",
  "BRAKE_PAD_3_033",
  "BRAKE_PAD_3_034",
  "BRAKE_PAD_3_045",
  "BRAKE_PAD_3_046",
  "BRAKE_PAD_3_049",
  "BRAKE_PAD_3_062",
  "BRAKE_PAD_3_063",
  "BRAKE_PAD_3_072",
  "BRAKE_PAD_3_075",
  "BRAKE_PAD_3_087",
  "BRAKE_PAD_3_096",
  "BRAKE_PAD_3_098",
  "BRAKE_PAD_3_118",
  "BRAKE_PAD_3_121",
  "BRAKE_PAD_3_123",
  "BRAKE_PAD_3_134",
  "BRAKE_PAD_3_137",
  "BRAKE_PAD_3_149",
  "BRAKE_PAD_3_161",
  "BRAKE_PAD_3_165",
  "BRAKE_PAD_3_170",
  "BRAKE_PAD_3_176",
  "BRAKE_PAD_3_179",
  "BRAKE_PAD_3_180",
  "BRAKE_PAD_3_192",
  "BRAKE_PAD_3_198",
  "BRAKE_PAD_3_224",
  "BRAKE_PAD_3_227",
  "BRAKE_PAD_3_288",
  "BRAKE_PAD_3_295",
  "BRAKE_PAD_3_307"
};

Regions = {
  "CA",
  "TX",
  "WI"
};

unit_cost = #[
  "BRAKE_PAD_1_005": 3.3279,
  "BRAKE_PAD_1_049": 2.2334,
  "BRAKE_PAD_1_079": 5.6083,
  "BRAKE_PAD_1_083": 1.9797,
  "BRAKE_PAD_1_097": 0.9800,
  "BRAKE_PAD_1_108": 2.5000,
  "BRAKE_PAD_1_115": 3.2689,
  "BRAKE_PAD_1_124": 2.1671,
  "BRAKE_PAD_1_125": 5.1593,
  "BRAKE_PAD_1_148": 5.3676,
  "BRAKE_PAD_1_150": 4.8941,
  "BRAKE_PAD_1_176": 3.2278,
  "BRAKE_PAD_1_177": 8.6035,
  "BRAKE_PAD_1_179": 3.5800,
  "BRAKE_PAD_1_181": 1.3150,
  "BRAKE_PAD_1_183": 2.9529,
  "BRAKE_PAD_2_003": 2.1816,
  "BRAKE_PAD_2_007": 2.7792,
  "BRAKE_PAD_2_031": 2.0861,
  "BRAKE_PAD_2_042": 2.0297,
  "BRAKE_PAD_2_045": 6.9768,
  "BRAKE_PAD_2_052": 12.9148,
  "BRAKE_PAD_2_078": 9.9179,
  "BRAKE_PAD_2_096": 7.9673,
  "BRAKE_PAD_2_116": 1.9658,
  "BRAKE_PAD_2_124": 2.7880,
  "BRAKE_PAD_2_126": 4.6492,
  "BRAKE_PAD_2_127": 7.1503,
  "BRAKE_PAD_2_130": 1.5612,
  "BRAKE_PAD_2_146": 1.9658,
  "BRAKE_PAD_2_159": 3.9599,
  "BRAKE_PAD_2_166": 2.1774,
  "BRAKE_PAD_2_172": 2.4602,
  "BRAKE_PAD_2_173": 8.7465,
  "BRAKE_PAD_2_181": 1.8523,
  "BRAKE_PAD_2_182": 1.9237,
  "BRAKE_PAD_2_183": 8.7464,
  "BRAKE_PAD_2_184": 4.8154,
  "BRAKE_PAD_2_188": 2.7812,
  "BRAKE_PAD_2_207": 7.4030,
  "BRAKE_PAD_2_210": 3.7117,
  "BRAKE_PAD_2_212": 4.6493,
  "BRAKE_PAD_2_223": 2.1800,
  "BRAKE_PAD_2_254": 6.2453,
  "BRAKE_PAD_2_259": 3.6397,
  "BRAKE_PAD_2_285": 3.3931,
  "BRAKE_PAD_2_295": 11.7447,
  "BRAKE_PAD_2_303": 2.1745,
  "BRAKE_PAD_2_311": 2.3898,
  "BRAKE_PAD_2_317": 12.8882,
  "BRAKE_PAD_2_324": 2.5025,
  "BRAKE_PAD_2_332": 3.2367,
  "BRAKE_PAD_2_346": 2.3800,
  "BRAKE_PAD_2_348": 5.9376,
  "BRAKE_PAD_2_352": 10.7205,
  "BRAKE_PAD_2_355": 2.6978,
  "BRAKE_PAD_2_361": 3.8872,
  "BRAKE_PAD_2_368": 7.4906,
  "BRAKE_PAD_2_369": 4.8700,
  "BRAKE_PAD_2_382": 3.5763,
  "BRAKE_PAD_2_387": 12.9700,
  "BRAKE_PAD_2_393": 3.8578,
  "BRAKE_PAD_3_008": 0.7748,
  "BRAKE_PAD_3_009": 2.2419,
  "BRAKE_PAD_3_023": 3.9476,
  "BRAKE_PAD_3_030": 1.3214,
  "BRAKE_PAD_3_033": 2.5000,
  "BRAKE_PAD_3_034": 2.5013,
  "BRAKE_PAD_3_045": 3.9727,
  "BRAKE_PAD_3_046": 1.9734,
  "BRAKE_PAD_3_049": 4.6587,
  "BRAKE_PAD_3_062": 2.8282,
  "BRAKE_PAD_3_063": 2.1726,
  "BRAKE_PAD_3_072": 2.4441,
  "BRAKE_PAD_3_075": 2.8711,
  "BRAKE_PAD_3_087": 2.5028,
  "BRAKE_PAD_3_096": 4.3166,
  "BRAKE_PAD_3_098": 4.2844,
  "BRAKE_PAD_3_118": 1.1563,
  "BRAKE_PAD_3_121": 2.9800,
  "BRAKE_PAD_3_123": 2.2130,
  "BRAKE_PAD_3_134": 6.6039,
  "BRAKE_PAD_3_137": 2.5038,
  "BRAKE_PAD_3_149": 2.3979,
  "BRAKE_PAD_3_161": 1.9800,
  "BRAKE_PAD_3_165": 3.2763,
  "BRAKE_PAD_3_170": 1.9800,
  "BRAKE_PAD_3_176": 1.5095,
  "BRAKE_PAD_3_179": 4.3246,
  "BRAKE_PAD_3_180": 2.9521,
  "BRAKE_PAD_3_192": 5.4800,
  "BRAKE_PAD_3_198": 5.9062,
  "BRAKE_PAD_3_224": 3.8710,
  "BRAKE_PAD_3_227": 2.6021,
  "BRAKE_PAD_3_288": 1.5000,
  "BRAKE_PAD_3_295": 0.8096,
  "BRAKE_PAD_3_307": 3.9272,
]#;

original_holding_cost = #[
  "BRAKE_PAD_1_005": 384.7613,
  "BRAKE_PAD_1_049": 166.2869,
  "BRAKE_PAD_1_079": 108.5954,
  "BRAKE_PAD_1_083": 515.9919,
  "BRAKE_PAD_1_097": 270.2629,
  "BRAKE_PAD_1_108": 429.8057,
  "BRAKE_PAD_1_115": 297.3018,
  "BRAKE_PAD_1_124": 364.3451,
  "BRAKE_PAD_1_125": 365.3771,
  "BRAKE_PAD_1_148": 170.5925,
  "BRAKE_PAD_1_150": 358.3584,
  "BRAKE_PAD_1_176": 416.2994,
  "BRAKE_PAD_1_177": 605.5109,
  "BRAKE_PAD_1_179": 125.1945,
  "BRAKE_PAD_1_181": 271.6507,
  "BRAKE_PAD_1_183": 721.6751,
  "BRAKE_PAD_2_003": 362.7099,
  "BRAKE_PAD_2_007": 204.2442,
  "BRAKE_PAD_2_031": 331.7925,
  "BRAKE_PAD_2_042": 383.1492,
  "BRAKE_PAD_2_045": 382.8871,
  "BRAKE_PAD_2_052": 516.5200,
  "BRAKE_PAD_2_078": 800.9410,
  "BRAKE_PAD_2_096": 263.4719,
  "BRAKE_PAD_2_116": 317.2185,
  "BRAKE_PAD_2_124": 304.6803,
  "BRAKE_PAD_2_126": 341.2604,
  "BRAKE_PAD_2_127": 316.2208,
  "BRAKE_PAD_2_130": 340.2739,
  "BRAKE_PAD_2_146": 298.6236,
  "BRAKE_PAD_2_159": 169.8843,
  "BRAKE_PAD_2_166": 279.9164,
  "BRAKE_PAD_2_172": 221.7812,
  "BRAKE_PAD_2_173": 633.2302,
  "BRAKE_PAD_2_181": 793.6556,
  "BRAKE_PAD_2_182": 302.3317,
  "BRAKE_PAD_2_183": 861.7545,
  "BRAKE_PAD_2_184": 646.6429,
  "BRAKE_PAD_2_188": 267.1700,
  "BRAKE_PAD_2_207": 305.6795,
  "BRAKE_PAD_2_210": 293.9016,
  "BRAKE_PAD_2_212": 512.0192,
  "BRAKE_PAD_2_223": 144.1872,
  "BRAKE_PAD_2_254": 123.4021,
  "BRAKE_PAD_2_259": 316.5657,
  "BRAKE_PAD_2_285": 1254.4976,
  "BRAKE_PAD_2_295": 778.7843,
  "BRAKE_PAD_2_303": 189.7845,
  "BRAKE_PAD_2_311": 458.1185,
  "BRAKE_PAD_2_317": 385.2336,
  "BRAKE_PAD_2_324": 330.2745,
  "BRAKE_PAD_2_332": 303.3374,
  "BRAKE_PAD_2_346": 522.6801,
  "BRAKE_PAD_2_348": 531.0313,
  "BRAKE_PAD_2_352": 229.4132,
  "BRAKE_PAD_2_355": 182.4613,
  "BRAKE_PAD_2_361": 404.5491,
  "BRAKE_PAD_2_368": 918.7916,
  "BRAKE_PAD_2_369": 289.8195,
  "BRAKE_PAD_2_382": 452.7066,
  "BRAKE_PAD_2_387": 662.3929,
  "BRAKE_PAD_2_393": 411.7900,
  "BRAKE_PAD_3_008": 338.8285,
  "BRAKE_PAD_3_009": 240.5010,
  "BRAKE_PAD_3_023": 443.9017,
  "BRAKE_PAD_3_030": 379.0261,
  "BRAKE_PAD_3_033": 228.1655,
  "BRAKE_PAD_3_034": 429.5625,
  "BRAKE_PAD_3_045": 364.5201,
  "BRAKE_PAD_3_046": 174.6570,
  "BRAKE_PAD_3_049": 252.1384,
  "BRAKE_PAD_3_062": 322.2327,
  "BRAKE_PAD_3_063": 379.2453,
  "BRAKE_PAD_3_072": 329.2664,
  "BRAKE_PAD_3_075": 154.2561,
  "BRAKE_PAD_3_087": 578.4275,
  "BRAKE_PAD_3_096": 573.9708,
  "BRAKE_PAD_3_098": 556.8116,
  "BRAKE_PAD_3_118": 402.8493,
  "BRAKE_PAD_3_121": 616.9669,
  "BRAKE_PAD_3_123": 108.3707,
  "BRAKE_PAD_3_134": 450.3689,
  "BRAKE_PAD_3_137": 135.3048,
  "BRAKE_PAD_3_149": 168.9242,
  "BRAKE_PAD_3_161": 257.3381,
  "BRAKE_PAD_3_165": 121.3870,
  "BRAKE_PAD_3_170": 228.0239,
  "BRAKE_PAD_3_176": 439.2282,
  "BRAKE_PAD_3_179": 332.9193,
  "BRAKE_PAD_3_180": 211.5430,
  "BRAKE_PAD_3_192": 426.1373,
  "BRAKE_PAD_3_198": 321.4803,
  "BRAKE_PAD_3_224": 570.5890,
  "BRAKE_PAD_3_227": 480.8675,
  "BRAKE_PAD_3_288": 1009.8937,
  "BRAKE_PAD_3_295": 508.4066,
  "BRAKE_PAD_3_307": 869.9357,
]#;

original_ordering_cost = #[
  "BRAKE_PAD_1_005": 209.1001,
  "BRAKE_PAD_1_049": 75.9894,
  "BRAKE_PAD_1_079": 56.3207,
  "BRAKE_PAD_1_083": 242.3844,
  "BRAKE_PAD_1_097": 121.5291,
  "BRAKE_PAD_1_108": 167.3028,
  "BRAKE_PAD_1_115": 141.4411,
  "BRAKE_PAD_1_124": 217.1484,
  "BRAKE_PAD_1_125": 200.2591,
  "BRAKE_PAD_1_148": 82.9940,
  "BRAKE_PAD_1_150": 112.4928,
  "BRAKE_PAD_1_176": 179.6861,
  "BRAKE_PAD_1_177": 201.2971,
  "BRAKE_PAD_1_179": 110.0102,
  "BRAKE_PAD_1_181": 126.1489,
  "BRAKE_PAD_1_183": 371.6651,
  "BRAKE_PAD_2_003": 206.8680,
  "BRAKE_PAD_2_007": 71.3007,
  "BRAKE_PAD_2_031": 251.4575,
  "BRAKE_PAD_2_042": 230.4898,
  "BRAKE_PAD_2_045": 122.3646,
  "BRAKE_PAD_2_052": 394.1613,
  "BRAKE_PAD_2_078": 352.6375,
  "BRAKE_PAD_2_096": 93.5841,
  "BRAKE_PAD_2_116": 131.0146,
  "BRAKE_PAD_2_124": 126.0891,
  "BRAKE_PAD_2_126": 204.6021,
  "BRAKE_PAD_2_127": 84.0998,
  "BRAKE_PAD_2_130": 149.8961,
  "BRAKE_PAD_2_146": 145.8187,
  "BRAKE_PAD_2_159": 64.8006,
  "BRAKE_PAD_2_166": 238.5575,
  "BRAKE_PAD_2_172": 102.0108,
  "BRAKE_PAD_2_173": 272.2699,
  "BRAKE_PAD_2_181": 508.0443,
  "BRAKE_PAD_2_182": 147.4337,
  "BRAKE_PAD_2_183": 438.2482,
  "BRAKE_PAD_2_184": 367.3329,
  "BRAKE_PAD_2_188": 134.4389,
  "BRAKE_PAD_2_207": 150.1291,
  "BRAKE_PAD_2_210": 106.2117,
  "BRAKE_PAD_2_212": 354.5019,
  "BRAKE_PAD_2_223": 106.2942,
  "BRAKE_PAD_2_254": 90.3502,
  "BRAKE_PAD_2_259": 96.6236,
  "BRAKE_PAD_2_285": 310.8600,
  "BRAKE_PAD_2_295": 344.6837,
  "BRAKE_PAD_2_303": 168.0059,
  "BRAKE_PAD_2_311": 222.0399,
  "BRAKE_PAD_2_317": 270.4637,
  "BRAKE_PAD_2_324": 168.8990,
  "BRAKE_PAD_2_332": 87.9333,
  "BRAKE_PAD_2_346": 284.6546,
  "BRAKE_PAD_2_348": 177.8685,
  "BRAKE_PAD_2_352": 410.3945,
  "BRAKE_PAD_2_355": 149.5679,
  "BRAKE_PAD_2_361": 253.3188,
  "BRAKE_PAD_2_368": 785.5856,
  "BRAKE_PAD_2_369": 126.1945,
  "BRAKE_PAD_2_382": 235.2429,
  "BRAKE_PAD_2_387": 314.2395,
  "BRAKE_PAD_2_393": 147.8546,
  "BRAKE_PAD_3_008": 191.8878,
  "BRAKE_PAD_3_009": 110.4748,
  "BRAKE_PAD_3_023": 235.0884,
  "BRAKE_PAD_3_030": 221.1782,
  "BRAKE_PAD_3_033": 79.7466,
  "BRAKE_PAD_3_034": 177.1859,
  "BRAKE_PAD_3_045": 133.8095,
  "BRAKE_PAD_3_046": 59.0884,
  "BRAKE_PAD_3_049": 113.3692,
  "BRAKE_PAD_3_062": 127.1251,
  "BRAKE_PAD_3_063": 167.9594,
  "BRAKE_PAD_3_072": 146.7275,
  "BRAKE_PAD_3_075": 70.3473,
  "BRAKE_PAD_3_087": 328.2719,
  "BRAKE_PAD_3_096": 256.9227,
  "BRAKE_PAD_3_098": 264.3531,
  "BRAKE_PAD_3_118": 249.0687,
  "BRAKE_PAD_3_121": 321.6150,
  "BRAKE_PAD_3_123": 76.9579,
  "BRAKE_PAD_3_134": 351.1814,
  "BRAKE_PAD_3_137": 92.3819,
  "BRAKE_PAD_3_149": 83.9143,
  "BRAKE_PAD_3_161": 96.7782,
  "BRAKE_PAD_3_165": 46.2894,
  "BRAKE_PAD_3_170": 84.9743,
  "BRAKE_PAD_3_176": 204.9891,
  "BRAKE_PAD_3_179": 116.3931,
  "BRAKE_PAD_3_180": 78.7388,
  "BRAKE_PAD_3_192": 195.6426,
  "BRAKE_PAD_3_198": 126.2382,
  "BRAKE_PAD_3_224": 302.2714,
  "BRAKE_PAD_3_227": 241.7708,
  "BRAKE_PAD_3_288": 691.9121,
  "BRAKE_PAD_3_295": 297.8824,
  "BRAKE_PAD_3_307": 488.6818,
]#;

original_stockout_cost = #[
  "BRAKE_PAD_1_005": 8.9949,
  "BRAKE_PAD_1_049": 2.4699,
  "BRAKE_PAD_1_079": 1.1816,
  "BRAKE_PAD_1_083": 14.2153,
  "BRAKE_PAD_1_097": 5.0714,
  "BRAKE_PAD_1_108": 7.1912,
  "BRAKE_PAD_1_115": 5.4812,
  "BRAKE_PAD_1_124": 9.1947,
  "BRAKE_PAD_1_125": 10.7986,
  "BRAKE_PAD_1_148": 2.7399,
  "BRAKE_PAD_1_150": 5.0277,
  "BRAKE_PAD_1_176": 7.8222,
  "BRAKE_PAD_1_177": 11.2160,
  "BRAKE_PAD_1_179": 2.9743,
  "BRAKE_PAD_1_181": 4.6189,
  "BRAKE_PAD_1_183": 33.6397,
  "BRAKE_PAD_2_003": 8.4927,
  "BRAKE_PAD_2_007": 2.5125,
  "BRAKE_PAD_2_031": 10.1450,
  "BRAKE_PAD_2_042": 10.6656,
  "BRAKE_PAD_2_045": 5.6509,
  "BRAKE_PAD_2_052": 23.4563,
  "BRAKE_PAD_2_078": 31.5618,
  "BRAKE_PAD_2_096": 4.1847,
  "BRAKE_PAD_2_116": 5.5589,
  "BRAKE_PAD_2_124": 5.0533,
  "BRAKE_PAD_2_126": 7.8409,
  "BRAKE_PAD_2_127": 3.0657,
  "BRAKE_PAD_2_130": 7.5574,
  "BRAKE_PAD_2_146": 6.1875,
  "BRAKE_PAD_2_159": 1.9333,
  "BRAKE_PAD_2_166": 8.0388,
  "BRAKE_PAD_2_172": 4.7543,
  "BRAKE_PAD_2_173": 17.4185,
  "BRAKE_PAD_2_181": 54.6851,
  "BRAKE_PAD_2_182": 6.2519,
  "BRAKE_PAD_2_183": 41.6752,
  "BRAKE_PAD_2_184": 28.8881,
  "BRAKE_PAD_2_188": 5.1456,
  "BRAKE_PAD_2_207": 5.9526,
  "BRAKE_PAD_2_210": 6.0823,
  "BRAKE_PAD_2_212": 21.9889,
  "BRAKE_PAD_2_223": 3.4924,
  "BRAKE_PAD_2_254": 2.3445,
  "BRAKE_PAD_2_259": 5.4094,
  "BRAKE_PAD_2_285": 48.7939,
  "BRAKE_PAD_2_295": 28.2360,
  "BRAKE_PAD_2_303": 3.7260,
  "BRAKE_PAD_2_311": 12.2651,
  "BRAKE_PAD_2_317": 10.6778,
  "BRAKE_PAD_2_324": 7.8500,
  "BRAKE_PAD_2_332": 3.1072,
  "BRAKE_PAD_2_346": 24.8148,
  "BRAKE_PAD_2_348": 8.7814,
  "BRAKE_PAD_2_352": 16.0804,
  "BRAKE_PAD_2_355": 6.4109,
  "BRAKE_PAD_2_361": 11.1401,
  "BRAKE_PAD_2_368": 92.2922,
  "BRAKE_PAD_2_369": 7.4270,
  "BRAKE_PAD_2_382": 12.1092,
  "BRAKE_PAD_2_387": 21.1956,
  "BRAKE_PAD_2_393": 7.8229,
  "BRAKE_PAD_3_008": 9.2651,
  "BRAKE_PAD_3_009": 5.4214,
  "BRAKE_PAD_3_023": 11.3030,
  "BRAKE_PAD_3_030": 9.9840,
  "BRAKE_PAD_3_033": 3.5266,
  "BRAKE_PAD_3_034": 8.6516,
  "BRAKE_PAD_3_045": 6.0662,
  "BRAKE_PAD_3_046": 1.8455,
  "BRAKE_PAD_3_049": 3.6973,
  "BRAKE_PAD_3_062": 5.5752,
  "BRAKE_PAD_3_063": 6.7939,
  "BRAKE_PAD_3_072": 6.7255,
  "BRAKE_PAD_3_075": 2.0830,
  "BRAKE_PAD_3_087": 25.2790,
  "BRAKE_PAD_3_096": 16.3415,
  "BRAKE_PAD_3_098": 16.8304,
  "BRAKE_PAD_3_118": 12.9981,
  "BRAKE_PAD_3_121": 26.2130,
  "BRAKE_PAD_3_123": 1.7812,
  "BRAKE_PAD_3_134": 18.4710,
  "BRAKE_PAD_3_137": 2.6427,
  "BRAKE_PAD_3_149": 2.8235,
  "BRAKE_PAD_3_161": 3.2590,
  "BRAKE_PAD_3_165": 0.9865,
  "BRAKE_PAD_3_170": 3.8605,
  "BRAKE_PAD_3_176": 9.9158,
  "BRAKE_PAD_3_179": 4.7080,
  "BRAKE_PAD_3_180": 3.1510,
  "BRAKE_PAD_3_192": 19.5415,
  "BRAKE_PAD_3_198": 5.1434,
  "BRAKE_PAD_3_224": 20.4839,
  "BRAKE_PAD_3_227": 13.6690,
  "BRAKE_PAD_3_288": 85.2680,
  "BRAKE_PAD_3_295": 19.8617,
  "BRAKE_PAD_3_307": 55.4095,
]#;

original_avg_inventory = #[
  "BRAKE_PAD_1_005": 633.2381,
  "BRAKE_PAD_1_049": 355.4047,
  "BRAKE_PAD_1_079": 91.7087,
  "BRAKE_PAD_1_083": 1453.4069,
  "BRAKE_PAD_1_097": 1559.4122,
  "BRAKE_PAD_1_108": 841.8760,
  "BRAKE_PAD_1_115": 435.0909,
  "BRAKE_PAD_1_124": 957.0778,
  "BRAKE_PAD_1_125": 383.7769,
  "BRAKE_PAD_1_148": 150.5457,
  "BRAKE_PAD_1_150": 335.5837,
  "BRAKE_PAD_1_176": 662.2731,
  "BRAKE_PAD_1_177": 317.9068,
  "BRAKE_PAD_1_179": 184.7470,
  "BRAKE_PAD_1_181": 1019.8095,
  "BRAKE_PAD_1_183": 1500.4980,
  "BRAKE_PAD_2_003": 921.5734,
  "BRAKE_PAD_2_007": 309.6561,
  "BRAKE_PAD_2_031": 945.4814,
  "BRAKE_PAD_2_042": 1116.3427,
  "BRAKE_PAD_2_045": 243.1186,
  "BRAKE_PAD_2_052": 227.0845,
  "BRAKE_PAD_2_078": 443.1943,
  "BRAKE_PAD_2_096": 137.2053,
  "BRAKE_PAD_2_116": 791.7583,
  "BRAKE_PAD_2_124": 526.9316,
  "BRAKE_PAD_2_126": 403.3841,
  "BRAKE_PAD_2_127": 187.2831,
  "BRAKE_PAD_2_130": 1184.7720,
  "BRAKE_PAD_2_146": 791.6381,
  "BRAKE_PAD_2_159": 184.0186,
  "BRAKE_PAD_2_166": 756.8044,
  "BRAKE_PAD_2_172": 462.6181,
  "BRAKE_PAD_2_173": 358.7639,
  "BRAKE_PAD_2_181": 2844.7127,
  "BRAKE_PAD_2_182": 808.2525,
  "BRAKE_PAD_2_183": 534.5727,
  "BRAKE_PAD_2_184": 801.6467,
  "BRAKE_PAD_2_188": 505.2398,
  "BRAKE_PAD_2_207": 197.1020,
  "BRAKE_PAD_2_210": 377.2355,
  "BRAKE_PAD_2_212": 654.6776,
  "BRAKE_PAD_2_223": 367.8729,
  "BRAKE_PAD_2_254": 101.6763,
  "BRAKE_PAD_2_259": 376.6288,
  "BRAKE_PAD_2_285": 2287.1729,
  "BRAKE_PAD_2_295": 343.2048,
  "BRAKE_PAD_2_303": 498.4897,
  "BRAKE_PAD_2_311": 1129.6970,
  "BRAKE_PAD_2_317": 150.6619,
  "BRAKE_PAD_2_324": 681.0794,
  "BRAKE_PAD_2_332": 400.3290,
  "BRAKE_PAD_2_346": 1343.5177,
  "BRAKE_PAD_2_348": 407.7332,
  "BRAKE_PAD_2_352": 134.4591,
  "BRAKE_PAD_2_355": 388.2654,
  "BRAKE_PAD_2_361": 554.0995,
  "BRAKE_PAD_2_368": 772.9015,
  "BRAKE_PAD_2_369": 295.8012,
  "BRAKE_PAD_2_382": 704.6714,
  "BRAKE_PAD_2_387": 255.8493,
  "BRAKE_PAD_2_393": 503.7620,
  "BRAKE_PAD_3_008": 2285.0053,
  "BRAKE_PAD_3_009": 534.4559,
  "BRAKE_PAD_3_023": 596.7954,
  "BRAKE_PAD_3_030": 1671.0594,
  "BRAKE_PAD_3_033": 432.0697,
  "BRAKE_PAD_3_034": 955.9739,
  "BRAKE_PAD_3_045": 418.8968,
  "BRAKE_PAD_3_046": 386.3526,
  "BRAKE_PAD_3_049": 256.9625,
  "BRAKE_PAD_3_062": 568.7757,
  "BRAKE_PAD_3_063": 910.4000,
  "BRAKE_PAD_3_072": 687.3968,
  "BRAKE_PAD_3_075": 251.8197,
  "BRAKE_PAD_3_087": 1504.8194,
  "BRAKE_PAD_3_096": 722.1286,
  "BRAKE_PAD_3_098": 729.2885,
  "BRAKE_PAD_3_118": 2205.7731,
  "BRAKE_PAD_3_121": 1338.7250,
  "BRAKE_PAD_3_123": 255.6591,
  "BRAKE_PAD_3_134": 391.4704,
  "BRAKE_PAD_3_137": 278.8872,
  "BRAKE_PAD_3_149": 342.7163,
  "BRAKE_PAD_3_161": 622.9569,
  "BRAKE_PAD_3_165": 158.7376,
  "BRAKE_PAD_3_170": 559.9128,
  "BRAKE_PAD_3_176": 1567.6205,
  "BRAKE_PAD_3_179": 342.8986,
  "BRAKE_PAD_3_180": 331.0357,
  "BRAKE_PAD_3_192": 446.6946,
  "BRAKE_PAD_3_198": 253.8033,
  "BRAKE_PAD_3_224": 859.2593,
  "BRAKE_PAD_3_227": 1063.7756,
  "BRAKE_PAD_3_288": 4026.5083,
  "BRAKE_PAD_3_295": 4026.8371,
  "BRAKE_PAD_3_307": 1414.2279,
]#;

original_service_level = #[
  "BRAKE_PAD_1_005": 0.9500,
  "BRAKE_PAD_1_049": 0.9500,
  "BRAKE_PAD_1_079": 0.9500,
  "BRAKE_PAD_1_083": 0.9500,
  "BRAKE_PAD_1_097": 0.9500,
  "BRAKE_PAD_1_108": 0.9500,
  "BRAKE_PAD_1_115": 0.9500,
  "BRAKE_PAD_1_124": 0.9500,
  "BRAKE_PAD_1_125": 0.9500,
  "BRAKE_PAD_1_148": 0.9500,
  "BRAKE_PAD_1_150": 0.9500,
  "BRAKE_PAD_1_176": 0.9500,
  "BRAKE_PAD_1_177": 0.9500,
  "BRAKE_PAD_1_179": 0.9500,
  "BRAKE_PAD_1_181": 0.9500,
  "BRAKE_PAD_1_183": 0.9500,
  "BRAKE_PAD_2_003": 0.9500,
  "BRAKE_PAD_2_007": 0.9500,
  "BRAKE_PAD_2_031": 0.9500,
  "BRAKE_PAD_2_042": 0.9500,
  "BRAKE_PAD_2_045": 0.9500,
  "BRAKE_PAD_2_052": 0.9500,
  "BRAKE_PAD_2_078": 0.9500,
  "BRAKE_PAD_2_096": 0.9500,
  "BRAKE_PAD_2_116": 0.9500,
  "BRAKE_PAD_2_124": 0.9500,
  "BRAKE_PAD_2_126": 0.9500,
  "BRAKE_PAD_2_127": 0.9500,
  "BRAKE_PAD_2_130": 0.9500,
  "BRAKE_PAD_2_146": 0.9500,
  "BRAKE_PAD_2_159": 0.9500,
  "BRAKE_PAD_2_166": 0.9500,
  "BRAKE_PAD_2_172": 0.9500,
  "BRAKE_PAD_2_173": 0.9500,
  "BRAKE_PAD_2_181": 0.9500,
  "BRAKE_PAD_2_182": 0.9500,
  "BRAKE_PAD_2_183": 0.9500,
  "BRAKE_PAD_2_184": 0.9500,
  "BRAKE_PAD_2_188": 0.9500,
  "BRAKE_PAD_2_207": 0.9500,
  "BRAKE_PAD_2_210": 0.9500,
  "BRAKE_PAD_2_212": 0.9500,
  "BRAKE_PAD_2_223": 0.9500,
  "BRAKE_PAD_2_254": 0.9500,
  "BRAKE_PAD_2_259": 0.9500,
  "BRAKE_PAD_2_285": 0.9500,
  "BRAKE_PAD_2_295": 0.9500,
  "BRAKE_PAD_2_303": 0.9500,
  "BRAKE_PAD_2_311": 0.9500,
  "BRAKE_PAD_2_317": 0.9500,
  "BRAKE_PAD_2_324": 0.9500,
  "BRAKE_PAD_2_332": 0.9500,
  "BRAKE_PAD_2_346": 0.9500,
  "BRAKE_PAD_2_348": 0.9500,
  "BRAKE_PAD_2_352": 0.9500,
  "BRAKE_PAD_2_355": 0.9500,
  "BRAKE_PAD_2_361": 0.9500,
  "BRAKE_PAD_2_368": 0.9500,
  "BRAKE_PAD_2_369": 0.9500,
  "BRAKE_PAD_2_382": 0.9500,
  "BRAKE_PAD_2_387": 0.9500,
  "BRAKE_PAD_2_393": 0.9500,
  "BRAKE_PAD_3_008": 0.9500,
  "BRAKE_PAD_3_009": 0.9500,
  "BRAKE_PAD_3_023": 0.9500,
  "BRAKE_PAD_3_030": 0.9500,
  "BRAKE_PAD_3_033": 0.9500,
  "BRAKE_PAD_3_034": 0.9500,
  "BRAKE_PAD_3_045": 0.9500,
  "BRAKE_PAD_3_046": 0.9500,
  "BRAKE_PAD_3_049": 0.9500,
  "BRAKE_PAD_3_062": 0.9500,
  "BRAKE_PAD_3_063": 0.9500,
  "BRAKE_PAD_3_072": 0.9500,
  "BRAKE_PAD_3_075": 0.9500,
  "BRAKE_PAD_3_087": 0.9500,
  "BRAKE_PAD_3_096": 0.9500,
  "BRAKE_PAD_3_098": 0.9500,
  "BRAKE_PAD_3_118": 0.9500,
  "BRAKE_PAD_3_121": 0.9500,
  "BRAKE_PAD_3_123": 0.9500,
  "BRAKE_PAD_3_134": 0.9500,
  "BRAKE_PAD_3_137": 0.9500,
  "BRAKE_PAD_3_149": 0.9500,
  "BRAKE_PAD_3_161": 0.9500,
  "BRAKE_PAD_3_165": 0.9500,
  "BRAKE_PAD_3_170": 0.9500,
  "BRAKE_PAD_3_176": 0.9500,
  "BRAKE_PAD_3_179": 0.9500,
  "BRAKE_PAD_3_180": 0.9500,
  "BRAKE_PAD_3_192": 0.9500,
  "BRAKE_PAD_3_198": 0.9500,
  "BRAKE_PAD_3_224": 0.9500,
  "BRAKE_PAD_3_227": 0.9500,
  "BRAKE_PAD_3_288": 0.9500,
  "BRAKE_PAD_3_295": 0.9500,
  "BRAKE_PAD_3_307": 0.9500,
]#;

ABC_Class = #[
  "BRAKE_PAD_1_005": "A",
  "BRAKE_PAD_1_049": "C",
  "BRAKE_PAD_1_079": "C",
  "BRAKE_PAD_1_083": "A",
  "BRAKE_PAD_1_097": "B",
  "BRAKE_PAD_1_108": "A",
  "BRAKE_PAD_1_115": "B",
  "BRAKE_PAD_1_124": "A",
  "BRAKE_PAD_1_125": "B",
  "BRAKE_PAD_1_148": "C",
  "BRAKE_PAD_1_150": "B",
  "BRAKE_PAD_1_176": "A",
  "BRAKE_PAD_1_177": "A",
  "BRAKE_PAD_1_179": "C",
  "BRAKE_PAD_1_181": "B",
  "BRAKE_PAD_1_183": "A",
  "BRAKE_PAD_2_003": "A",
  "BRAKE_PAD_2_007": "C",
  "BRAKE_PAD_2_031": "A",
  "BRAKE_PAD_2_042": "A",
  "BRAKE_PAD_2_045": "B",
  "BRAKE_PAD_2_052": "A",
  "BRAKE_PAD_2_078": "A",
  "BRAKE_PAD_2_096": "C",
  "BRAKE_PAD_2_116": "B",
  "BRAKE_PAD_2_124": "B",
  "BRAKE_PAD_2_126": "A",
  "BRAKE_PAD_2_127": "B",
  "BRAKE_PAD_2_130": "B",
  "BRAKE_PAD_2_146": "B",
  "BRAKE_PAD_2_159": "C",
  "BRAKE_PAD_2_166": "A",
  "BRAKE_PAD_2_172": "C",
  "BRAKE_PAD_2_173": "A",
  "BRAKE_PAD_2_181": "A",
  "BRAKE_PAD_2_182": "B",
  "BRAKE_PAD_2_183": "A",
  "BRAKE_PAD_2_184": "A",
  "BRAKE_PAD_2_188": "B",
  "BRAKE_PAD_2_207": "B",
  "BRAKE_PAD_2_210": "C",
  "BRAKE_PAD_2_212": "A",
  "BRAKE_PAD_2_223": "C",
  "BRAKE_PAD_2_254": "C",
  "BRAKE_PAD_2_259": "C",
  "BRAKE_PAD_2_285": "A",
  "BRAKE_PAD_2_295": "A",
  "BRAKE_PAD_2_303": "A",
  "BRAKE_PAD_2_311": "A",
  "BRAKE_PAD_2_317": "A",
  "BRAKE_PAD_2_324": "B",
  "BRAKE_PAD_2_332": "B",
  "BRAKE_PAD_2_346": "B",
  "BRAKE_PAD_2_348": "A",
  "BRAKE_PAD_2_352": "B",
  "BRAKE_PAD_2_355": "C",
  "BRAKE_PAD_2_361": "A",
  "BRAKE_PAD_2_368": "A",
  "BRAKE_PAD_2_369": "C",
  "BRAKE_PAD_2_382": "A",
  "BRAKE_PAD_2_387": "A",
  "BRAKE_PAD_2_393": "B",
  "BRAKE_PAD_3_008": "B",
  "BRAKE_PAD_3_009": "C",
  "BRAKE_PAD_3_023": "A",
  "BRAKE_PAD_3_030": "A",
  "BRAKE_PAD_3_033": "C",
  "BRAKE_PAD_3_034": "A",
  "BRAKE_PAD_3_045": "B",
  "BRAKE_PAD_3_046": "C",
  "BRAKE_PAD_3_049": "B",
  "BRAKE_PAD_3_062": "B",
  "BRAKE_PAD_3_063": "A",
  "BRAKE_PAD_3_072": "B",
  "BRAKE_PAD_3_075": "C",
  "BRAKE_PAD_3_087": "A",
  "BRAKE_PAD_3_096": "A",
  "BRAKE_PAD_3_098": "A",
  "BRAKE_PAD_3_118": "A",
  "BRAKE_PAD_3_121": "A",
  "BRAKE_PAD_3_123": "C",
  "BRAKE_PAD_3_134": "A",
  "BRAKE_PAD_3_137": "C",
  "BRAKE_PAD_3_149": "C",
  "BRAKE_PAD_3_161": "B",
  "BRAKE_PAD_3_165": "C",
  "BRAKE_PAD_3_170": "C",
  "BRAKE_PAD_3_176": "A",
  "BRAKE_PAD_3_179": "B",
  "BRAKE_PAD_3_180": "C",
  "BRAKE_PAD_3_192": "C",
  "BRAKE_PAD_3_198": "B",
  "BRAKE_PAD_3_224": "A",
  "BRAKE_PAD_3_227": "A",
  "BRAKE_PAD_3_288": "A",
  "BRAKE_PAD_3_295": "A",
  "BRAKE_PAD_3_307": "A",
]#;

sku_to_region = #[
  "BRAKE_PAD_1_005": "TX",
  "BRAKE_PAD_1_049": "TX",
  "BRAKE_PAD_1_079": "CA",
  "BRAKE_PAD_1_083": "WI",
  "BRAKE_PAD_1_097": "CA",
  "BRAKE_PAD_1_108": "TX",
  "BRAKE_PAD_1_115": "WI",
  "BRAKE_PAD_1_124": "WI",
  "BRAKE_PAD_1_125": "CA",
  "BRAKE_PAD_1_148": "TX",
  "BRAKE_PAD_1_150": "WI",
  "BRAKE_PAD_1_176": "WI",
  "BRAKE_PAD_1_177": "TX",
  "BRAKE_PAD_1_179": "WI",
  "BRAKE_PAD_1_181": "TX",
  "BRAKE_PAD_1_183": "CA",
  "BRAKE_PAD_2_003": "WI",
  "BRAKE_PAD_2_007": "CA",
  "BRAKE_PAD_2_031": "TX",
  "BRAKE_PAD_2_042": "WI",
  "BRAKE_PAD_2_045": "TX",
  "BRAKE_PAD_2_052": "WI",
  "BRAKE_PAD_2_078": "CA",
  "BRAKE_PAD_2_096": "CA",
  "BRAKE_PAD_2_116": "WI",
  "BRAKE_PAD_2_124": "CA",
  "BRAKE_PAD_2_126": "CA",
  "BRAKE_PAD_2_127": "WI",
  "BRAKE_PAD_2_130": "WI",
  "BRAKE_PAD_2_146": "WI",
  "BRAKE_PAD_2_159": "TX",
  "BRAKE_PAD_2_166": "CA",
  "BRAKE_PAD_2_172": "TX",
  "BRAKE_PAD_2_173": "CA",
  "BRAKE_PAD_2_181": "TX",
  "BRAKE_PAD_2_182": "TX",
  "BRAKE_PAD_2_183": "CA",
  "BRAKE_PAD_2_184": "TX",
  "BRAKE_PAD_2_188": "WI",
  "BRAKE_PAD_2_207": "WI",
  "BRAKE_PAD_2_210": "TX",
  "BRAKE_PAD_2_212": "WI",
  "BRAKE_PAD_2_223": "CA",
  "BRAKE_PAD_2_254": "TX",
  "BRAKE_PAD_2_259": "WI",
  "BRAKE_PAD_2_285": "TX",
  "BRAKE_PAD_2_295": "TX",
  "BRAKE_PAD_2_303": "CA",
  "BRAKE_PAD_2_311": "TX",
  "BRAKE_PAD_2_317": "WI",
  "BRAKE_PAD_2_324": "CA",
  "BRAKE_PAD_2_332": "TX",
  "BRAKE_PAD_2_346": "CA",
  "BRAKE_PAD_2_348": "TX",
  "BRAKE_PAD_2_352": "CA",
  "BRAKE_PAD_2_355": "WI",
  "BRAKE_PAD_2_361": "CA",
  "BRAKE_PAD_2_368": "TX",
  "BRAKE_PAD_2_369": "WI",
  "BRAKE_PAD_2_382": "CA",
  "BRAKE_PAD_2_387": "CA",
  "BRAKE_PAD_2_393": "CA",
  "BRAKE_PAD_3_008": "CA",
  "BRAKE_PAD_3_009": "CA",
  "BRAKE_PAD_3_023": "WI",
  "BRAKE_PAD_3_030": "CA",
  "BRAKE_PAD_3_033": "TX",
  "BRAKE_PAD_3_034": "TX",
  "BRAKE_PAD_3_045": "TX",
  "BRAKE_PAD_3_046": "TX",
  "BRAKE_PAD_3_049": "TX",
  "BRAKE_PAD_3_062": "TX",
  "BRAKE_PAD_3_063": "TX",
  "BRAKE_PAD_3_072": "CA",
  "BRAKE_PAD_3_075": "TX",
  "BRAKE_PAD_3_087": "TX",
  "BRAKE_PAD_3_096": "CA",
  "BRAKE_PAD_3_098": "WI",
  "BRAKE_PAD_3_118": "TX",
  "BRAKE_PAD_3_121": "TX",
  "BRAKE_PAD_3_123": "TX",
  "BRAKE_PAD_3_134": "WI",
  "BRAKE_PAD_3_137": "CA",
  "BRAKE_PAD_3_149": "TX",
  "BRAKE_PAD_3_161": "CA",
  "BRAKE_PAD_3_165": "TX",
  "BRAKE_PAD_3_170": "CA",
  "BRAKE_PAD_3_176": "CA",
  "BRAKE_PAD_3_179": "CA",
  "BRAKE_PAD_3_180": "CA",
  "BRAKE_PAD_3_192": "WI",
  "BRAKE_PAD_3_198": "WI",
  "BRAKE_PAD_3_224": "WI",
  "BRAKE_PAD_3_227": "CA",
  "BRAKE_PAD_3_288": "CA",
  "BRAKE_PAD_3_295": "TX",
  "BRAKE_PAD_3_307": "CA",
]#;

regional_inventory_budget = #[
  "TX": 750000.00,
  "CA": 500000.00,
  "WI": 400000.00,
]#;

